%mem=6GB
%chk=C:\Users\fo123\OneDrive - Imperial College London\benzene.chk
%nprocshared=8
# hf/3-21g geom=connectivity

Title Card Required

0 1
 C                 -1.09615384    0.69230768    0.00000000
 C                  0.29900616    0.69230768    0.00000000
 C                  0.99654416    1.90005868    0.00000000
 C                  0.29889016    3.10856768   -0.00119900
 C                 -1.09593484    3.10848968   -0.00167800
 C                 -1.79353584    1.90028368   -0.00068200
 H                 -1.64591284   -0.26000932    0.00045000
 H                  0.84851416   -0.26020532    0.00131500
 H                  2.09622416    1.90013868    0.00063400
 H                  0.84909016    4.06071068   -0.00125800
 H                 -1.64605684    4.06077068   -0.00263100
 H                 -2.89313984    1.90046668   -0.00086200

 1 2 1.5 6 1.5 7 1.0
 2 3 1.5 8 1.0
 3 4 1.5 9 1.0
 4 5 1.5 10 1.0
 5 6 1.5 11 1.0
 6 12 1.0
 7
 8
 9
 10
 11
 12

